Reading model...
...model read.
creating competitive generators file...
...competitive generators recorded.
Loading data...
.. real-time data read.
Compiling instance...
...instance created.
Creating Offer Mitigation (model will solve as dispatch if TRUE)...
...storage offer mitigation file created
Converting model to MPEC...
...converted
NOTE: initial MIP solve with only storage competitive to get feasible solution
Solving...

Welcome to IBM(R) ILOG(R) CPLEX(R) Interactive Optimizer 12.9.0.0
  with Simplex, Mixed Integer & Barrier Optimizers
5725-A06 5725-A29 5724-Y48 5724-Y49 5724-Y54 5724-Y55 5655-Y21
Copyright IBM Corp. 1988, 2019.  All Rights Reserved.

Type 'help' for a list of available commands.
Type 'help' followed by a command name for more
information on commands.

CPLEX> Logfile 'cplex.log' closed.
Logfile 'C:\Users\llavin\Desktop\test826\logs\tmpl_7h0krc.cplex.log' open.
CPLEX> New value for parallel optimization mode: -1
CPLEX> New value for mixed integer optimality gap tolerance: 0.02
CPLEX> New value for integrality tolerance: 1e-12
CPLEX> New value for deterministic time limit in ticks: 45000
CPLEX> Problem 'C:\Users\llavin\Desktop\test826\logs\tmpehbst12j.pyomo.lp' read.
Read time = 0.45 sec. (28.94 ticks)
CPLEX> Problem name         : C:\Users\llavin\Desktop\test826\logs\tmpehbst12j.pyomo.lp
Objective sense      : Maximize
Variables            :  107803  [Nneg: 1,  Box: 44062,  Free: 8928,
                                 Binary: 54812]
Objective nonzeros   :   19012
Linear constraints   :  246963  [Less: 82886,  Greater: 118460,  Equal: 45617]
  Nonzeros           :  622277
  RHS nonzeros       :  136553

Variables            : Min LB: -5000.000        Max UB: 1000000.       
Objective nonzeros   : Min   : 0.001000000      Max   : 208.3333       
Linear constraints   :
  Nonzeros           : Min   : 0.001000000      Max   : 1000000.       
  RHS nonzeros       : Min   : 0.001000000      Max   : 1000000.       
CPLEX> CPXPARAM_Parallel                                -1
CPXPARAM_DetTimeLimit                            45000
CPXPARAM_MIP_Tolerances_MIPGap                   0.02
CPXPARAM_MIP_Tolerances_Integrality              9.9999999999999998e-13
Tried aggregator 3 times.
MIP Presolve eliminated 173381 rows and 34503 columns.
MIP Presolve added 7680 rows and 0 columns.
MIP Presolve modified 53448 coefficients.
Aggregator did 25951 substitutions.
Reduced MIP has 55311 rows, 46965 columns, and 170170 nonzeros.
Reduced MIP has 18606 binaries, 0 generals, 0 SOSs, and 0 indicators.
Presolve time = 0.56 sec. (394.77 ticks)
Probing fixed 809 vars, tightened 12224 bounds.
Probing time = 0.42 sec. (16.81 ticks)
Tried aggregator 2 times.
MIP Presolve eliminated 1808 rows and 1626 columns.
MIP Presolve modified 12000 coefficients.
Aggregator did 89 substitutions.
Reduced MIP has 53414 rows, 45250 columns, and 164621 nonzeros.
Reduced MIP has 17797 binaries, 0 generals, 0 SOSs, and 0 indicators.
Presolve time = 0.25 sec. (260.69 ticks)
Probing fixed 2 vars, tightened 1127 bounds.
Probing time = 0.56 sec. (21.18 ticks)
Clique table members: 88202.
MIP emphasis: balance optimality and feasibility.
MIP search method: dynamic search.
Parallel mode: opportunistic, using up to 32 threads.
Root relaxation solution time = 1.17 sec. (2273.79 ticks)

        Nodes                                         Cuts/
   Node  Left     Objective  IInf  Best Integer    Best Bound    ItCnt     Gap

      0     0        0.0000   149                      0.0000    12048         
*     0+    0                            0.0000        0.0000             0.00%
      0     0        cutoff              0.0000        0.0000    12048    0.00%
Elapsed time = 5.42 sec. (5576.78 ticks, tree = 0.01 MB, solutions = 1)

Root node processing (before b&c):
  Real time             =    5.45 sec. (5580.57 ticks)
Parallel b&c, 32 threads:
  Real time             =    0.00 sec. (0.00 ticks)
  Sync time (average)   =    0.00 sec.
  Wait time (average)   =    0.00 sec.
                          ------------
Total (root+branch&cut) =    5.45 sec. (5580.57 ticks)

Solution pool: 1 solution saved.

MIP - Integer optimal solution:  Objective =  3.5618086258e-10
Solution time =    5.48 sec.  Iterations = 12048  Nodes = 0
Deterministic time = 5580.88 ticks  (1017.67 ticks/sec)

CPLEX> Incumbent solution written to file 'C:\Users\llavin\Desktop\test826\logs\tmpqpmc4j2v.cplex.sol'.
CPLEX> NOTE: no warmstart specified for MIP iteration, default behavior is true
NOTE: resolving with all competitive generators using storage-only solution to warmstart
Solving...

Welcome to IBM(R) ILOG(R) CPLEX(R) Interactive Optimizer 12.9.0.0
  with Simplex, Mixed Integer & Barrier Optimizers
5725-A06 5725-A29 5724-Y48 5724-Y49 5724-Y54 5724-Y55 5655-Y21
Copyright IBM Corp. 1988, 2019.  All Rights Reserved.

Type 'help' for a list of available commands.
Type 'help' followed by a command name for more
information on commands.

CPLEX> Logfile 'cplex.log' closed.
Logfile 'C:\Users\llavin\Desktop\test826\logs\tmpoh12d5ru.cplex.log' open.
CPLEX> New value for parallel optimization mode: -1
CPLEX> New value for mixed integer optimality gap tolerance: 0.02
CPLEX> New value for integrality tolerance: 1e-12
CPLEX> New value for deterministic time limit in ticks: 45000
CPLEX> Problem 'C:\Users\llavin\Desktop\test826\logs\tmpuv15g_2h.pyomo.lp' read.
Read time = 0.49 sec. (28.99 ticks)
CPLEX> MIP start file 'C:\Users\llavin\Desktop\test826\logs\tmpdoazomff.cplex.mst' read.
CPLEX> Problem name         : C:\Users\llavin\Desktop\test826\logs\tmpuv15g_2h.pyomo.lp
Objective sense      : Maximize
Variables            :  109243  [Nneg: 1,  Box: 45502,  Free: 8928,
                                 Binary: 54812]
Objective nonzeros   :   20405
Linear constraints   :  246963  [Less: 82886,  Greater: 118460,  Equal: 45617]
  Nonzeros           :  622277
  RHS nonzeros       :  136553

Variables            : Min LB: -5000.000        Max UB: 1000000.       
Objective nonzeros   : Min   : 0.001000000      Max   : 208.3333       
Linear constraints   :
  Nonzeros           : Min   : 0.001000000      Max   : 1000000.       
  RHS nonzeros       : Min   : 0.001000000      Max   : 1000000.       
CPLEX> CPXPARAM_Parallel                                -1
CPXPARAM_DetTimeLimit                            45000
CPXPARAM_MIP_Tolerances_MIPGap                   0.02
CPXPARAM_MIP_Tolerances_Integrality              9.9999999999999998e-13
Warning:  No solution found from 1 MIP starts.
Retaining values of one MIP start for possible repair.
Tried aggregator 3 times.
MIP Presolve eliminated 173381 rows and 35943 columns.
MIP Presolve added 7680 rows and 0 columns.
MIP Presolve modified 53448 coefficients.
Aggregator did 25951 substitutions.
Reduced MIP has 55311 rows, 46965 columns, and 170170 nonzeros.
Reduced MIP has 18606 binaries, 0 generals, 0 SOSs, and 0 indicators.
Presolve time = 0.56 sec. (395.56 ticks)
Probing fixed 809 vars, tightened 12224 bounds.
Probing time = 0.39 sec. (16.81 ticks)
Tried aggregator 2 times.
MIP Presolve eliminated 1808 rows and 1626 columns.
MIP Presolve modified 12000 coefficients.
Aggregator did 89 substitutions.
Reduced MIP has 53414 rows, 45250 columns, and 164621 nonzeros.
Reduced MIP has 17797 binaries, 0 generals, 0 SOSs, and 0 indicators.
Presolve time = 0.25 sec. (260.71 ticks)
Probing fixed 2 vars, tightened 1127 bounds.
Probing time = 0.56 sec. (21.18 ticks)
Clique table members: 88202.
MIP emphasis: balance optimality and feasibility.
MIP search method: dynamic search.
Parallel mode: opportunistic, using up to 32 threads.
Root relaxation solution time = 1.16 sec. (2320.45 ticks)

        Nodes                                         Cuts/
   Node  Left     Objective  IInf  Best Integer    Best Bound    ItCnt     Gap

      0     0      182.4135   156                    182.4135    12542         
      0     0      182.4135     2                     Cuts: 6    12545         
      0     0      182.4135     3                   Covers: 1    12546         
      0     0      182.4135     3                     Cuts: 3    12547         
*     0+    0                          135.2916      182.4135            34.83%
*     0+    0                          135.2916      182.4135            34.83%
      0     0        cutoff            135.2916      135.2916    12547    0.00%
Elapsed time = 9.47 sec. (9752.53 ticks, tree = 0.01 MB, solutions = 1)

Cover cuts applied:  2
Flow cuts applied:  6
Gomory fractional cuts applied:  2
Warning: integer solution contains unscaled infeasibilities.

Root node processing (before b&c):
  Real time             =    9.50 sec. (9756.88 ticks)
Parallel b&c, 32 threads:
  Real time             =    0.00 sec. (0.00 ticks)
  Sync time (average)   =    0.00 sec.
  Wait time (average)   =    0.00 sec.
                          ------------
Total (root+branch&cut) =    9.50 sec. (9756.88 ticks)

Solution pool: 2 solutions saved.

Maximum unscaled integer infeasibility = 1.11322e-09.
MIP - Integer optimal with unscaled infeasibilities:  Objective =  1.3529158232e+02
Solution time =    9.56 sec.  Iterations = 12547  Nodes = 0
Deterministic time = 9757.19 ticks  (1020.41 ticks/sec)

CPLEX> Incumbent solution written to file 'C:\Users\llavin\Desktop\test826\logs\tmpbueg5gwj.cplex.sol'.
CPLEX> Exporting results... 
